(set-logic QF_FPABV)
(declare-fun b11 () (_ FP 8 24))
(declare-fun b86 () (_ FP 8 24))
(declare-fun b116 () (_ FP 8 24))
(declare-fun b104 () (_ FP 8 24))
(declare-fun b80 () (_ FP 8 24))
(declare-fun b41 () (_ FP 8 24))
(declare-fun b98 () (_ FP 8 24))
(declare-fun b128 () (_ FP 8 24))
(declare-fun b110 () (_ FP 8 24))
(declare-fun b35 () (_ FP 8 24))
(declare-fun b122 () (_ FP 8 24))
(declare-fun b17 () (_ FP 8 24))
(declare-fun b89 () (_ FP 8 24))
(declare-fun b220 () (_ FP 8 24))
(declare-fun b62 () (_ FP 8 24))
(declare-fun b92 () (_ FP 8 24))
(declare-fun b10 () (_ FP 8 24))
(declare-fun b71 () (_ FP 8 24))
(declare-fun b56 () (_ FP 8 24))
(declare-fun b119 () (_ FP 8 24))
(declare-fun b65 () (_ FP 8 24))
(declare-fun b29 () (_ FP 8 24))
(declare-fun b23 () (_ FP 8 24))
(declare-fun b68 () (_ FP 8 24))
(declare-fun b20 () (_ FP 8 24))
(declare-fun b59 () (_ FP 8 24))
(declare-fun b77 () (_ FP 8 24))
(declare-fun b107 () (_ FP 8 24))
(declare-fun b14 () (_ FP 8 24))
(declare-fun b26 () (_ FP 8 24))
(declare-fun b44 () (_ FP 8 24))
(declare-fun b50 () (_ FP 8 24))
(declare-fun b125 () (_ FP 8 24))
(declare-fun b53 () (_ FP 8 24))
(declare-fun b38 () (_ FP 8 24))
(declare-fun b101 () (_ FP 8 24))
(declare-fun b47 () (_ FP 8 24))
(declare-fun b95 () (_ FP 8 24))
(declare-fun b83 () (_ FP 8 24))
(declare-fun b113 () (_ FP 8 24))
(declare-fun b32 () (_ FP 8 24))
(declare-fun b131 () (_ FP 8 24))
(declare-fun b74 () (_ FP 8 24))
(define-fun .3 () RoundingMode roundNearestTiesToEven)
(define-fun .9 () (_ FP 8 24) b11)
(define-fun .10 () (_ FP 8 24) b131)
(define-fun .11 () Bool (< .9 .10))
(define-fun .12 () (_ FP 8 24) b10)
(define-fun .13 () (_ FP 8 24) (/ .3 .12 .9))
(define-fun .14 () (_ FP 8 24) b14)
(define-fun .15 () (_ FP 8 24) (/ .3 .13 .14))
(define-fun .16 () (_ FP 8 24) b17)
(define-fun .17 () (_ FP 8 24) (/ .3 .15 .16))
(define-fun .18 () (_ FP 8 24) b20)
(define-fun .19 () (_ FP 8 24) (/ .3 .17 .18))
(define-fun .20 () (_ FP 8 24) b23)
(define-fun .21 () (_ FP 8 24) (/ .3 .19 .20))
(define-fun .22 () (_ FP 8 24) b26)
(define-fun .23 () (_ FP 8 24) (/ .3 .21 .22))
(define-fun .24 () (_ FP 8 24) b29)
(define-fun .25 () (_ FP 8 24) (/ .3 .23 .24))
(define-fun .26 () (_ FP 8 24) b32)
(define-fun .27 () (_ FP 8 24) (/ .3 .25 .26))
(define-fun .28 () (_ FP 8 24) b35)
(define-fun .29 () (_ FP 8 24) (/ .3 .27 .28))
(define-fun .30 () (_ FP 8 24) b38)
(define-fun .31 () (_ FP 8 24) (/ .3 .29 .30))
(define-fun .32 () (_ FP 8 24) b41)
(define-fun .33 () (_ FP 8 24) (/ .3 .31 .32))
(define-fun .34 () (_ FP 8 24) b44)
(define-fun .35 () (_ FP 8 24) (/ .3 .33 .34))
(define-fun .36 () (_ FP 8 24) b47)
(define-fun .37 () (_ FP 8 24) (/ .3 .35 .36))
(define-fun .38 () (_ FP 8 24) b50)
(define-fun .39 () (_ FP 8 24) (/ .3 .37 .38))
(define-fun .40 () (_ FP 8 24) b53)
(define-fun .41 () (_ FP 8 24) (/ .3 .39 .40))
(define-fun .42 () (_ FP 8 24) b56)
(define-fun .43 () (_ FP 8 24) (/ .3 .41 .42))
(define-fun .44 () (_ FP 8 24) b59)
(define-fun .45 () (_ FP 8 24) (/ .3 .43 .44))
(define-fun .46 () (_ FP 8 24) b62)
(define-fun .47 () (_ FP 8 24) (/ .3 .45 .46))
(define-fun .48 () (_ FP 8 24) b65)
(define-fun .49 () (_ FP 8 24) (/ .3 .47 .48))
(define-fun .50 () (_ FP 8 24) b68)
(define-fun .51 () (_ FP 8 24) (/ .3 .49 .50))
(define-fun .52 () (_ FP 8 24) b71)
(define-fun .53 () (_ FP 8 24) (/ .3 .51 .52))
(define-fun .54 () (_ FP 8 24) b74)
(define-fun .55 () (_ FP 8 24) (/ .3 .53 .54))
(define-fun .56 () (_ FP 8 24) b77)
(define-fun .57 () (_ FP 8 24) (/ .3 .55 .56))
(define-fun .58 () (_ FP 8 24) b80)
(define-fun .59 () (_ FP 8 24) (/ .3 .57 .58))
(define-fun .60 () (_ FP 8 24) b83)
(define-fun .61 () (_ FP 8 24) (/ .3 .59 .60))
(define-fun .62 () (_ FP 8 24) b86)
(define-fun .63 () (_ FP 8 24) (/ .3 .61 .62))
(define-fun .64 () (_ FP 8 24) b89)
(define-fun .65 () (_ FP 8 24) (/ .3 .63 .64))
(define-fun .66 () (_ FP 8 24) b92)
(define-fun .67 () (_ FP 8 24) (/ .3 .65 .66))
(define-fun .68 () (_ FP 8 24) b95)
(define-fun .69 () (_ FP 8 24) (/ .3 .67 .68))
(define-fun .70 () (_ FP 8 24) b98)
(define-fun .71 () (_ FP 8 24) (/ .3 .69 .70))
(define-fun .72 () (_ FP 8 24) b101)
(define-fun .73 () (_ FP 8 24) (/ .3 .71 .72))
(define-fun .74 () (_ FP 8 24) b104)
(define-fun .75 () (_ FP 8 24) (/ .3 .73 .74))
(define-fun .76 () (_ FP 8 24) b107)
(define-fun .77 () (_ FP 8 24) (/ .3 .75 .76))
(define-fun .78 () (_ FP 8 24) b110)
(define-fun .79 () (_ FP 8 24) (/ .3 .77 .78))
(define-fun .80 () (_ FP 8 24) b113)
(define-fun .81 () (_ FP 8 24) (/ .3 .79 .80))
(define-fun .82 () (_ FP 8 24) b116)
(define-fun .83 () (_ FP 8 24) (/ .3 .81 .82))
(define-fun .84 () (_ FP 8 24) b119)
(define-fun .85 () (_ FP 8 24) (/ .3 .83 .84))
(define-fun .86 () (_ FP 8 24) b122)
(define-fun .87 () (_ FP 8 24) (/ .3 .85 .86))
(define-fun .88 () (_ FP 8 24) b125)
(define-fun .89 () (_ FP 8 24) (/ .3 .87 .88))
(define-fun .90 () (_ FP 8 24) b128)
(define-fun .91 () (_ FP 8 24) (/ .3 .89 .90))
(define-fun .92 () Bool (< .91 .10))
(define-fun .93 () Bool (and .11 .92))
(define-fun .94 () (_ FP 8 24) b220)
(define-fun .95 () Bool (< .94 .9))
(define-fun .96 () Bool (and .93 .95))
(define-fun .97 () Bool (< .14 .10))
(define-fun .98 () Bool (and .96 .97))
(define-fun .99 () Bool (< .94 .14))
(define-fun .100 () Bool (and .98 .99))
(define-fun .101 () Bool (< .16 .10))
(define-fun .102 () Bool (and .100 .101))
(define-fun .103 () Bool (< .94 .16))
(define-fun .104 () Bool (and .102 .103))
(define-fun .105 () Bool (< .18 .10))
(define-fun .106 () Bool (and .104 .105))
(define-fun .107 () Bool (< .94 .18))
(define-fun .108 () Bool (and .106 .107))
(define-fun .109 () Bool (< .20 .10))
(define-fun .110 () Bool (and .108 .109))
(define-fun .111 () Bool (< .94 .20))
(define-fun .112 () Bool (and .110 .111))
(define-fun .113 () Bool (< .22 .10))
(define-fun .114 () Bool (and .112 .113))
(define-fun .115 () Bool (< .94 .22))
(define-fun .116 () Bool (and .114 .115))
(define-fun .117 () Bool (< .24 .10))
(define-fun .118 () Bool (and .116 .117))
(define-fun .119 () Bool (< .94 .24))
(define-fun .120 () Bool (and .118 .119))
(define-fun .121 () Bool (< .26 .10))
(define-fun .122 () Bool (and .120 .121))
(define-fun .123 () Bool (< .94 .26))
(define-fun .124 () Bool (and .122 .123))
(define-fun .125 () Bool (< .28 .10))
(define-fun .126 () Bool (and .124 .125))
(define-fun .127 () Bool (< .94 .28))
(define-fun .128 () Bool (and .126 .127))
(define-fun .129 () Bool (< .30 .10))
(define-fun .130 () Bool (and .128 .129))
(define-fun .131 () Bool (< .94 .30))
(define-fun .132 () Bool (and .130 .131))
(define-fun .133 () Bool (< .32 .10))
(define-fun .134 () Bool (and .132 .133))
(define-fun .135 () Bool (< .94 .32))
(define-fun .136 () Bool (and .134 .135))
(define-fun .137 () Bool (< .34 .10))
(define-fun .138 () Bool (and .136 .137))
(define-fun .139 () Bool (< .94 .34))
(define-fun .140 () Bool (and .138 .139))
(define-fun .141 () Bool (< .36 .10))
(define-fun .142 () Bool (and .140 .141))
(define-fun .143 () Bool (< .94 .36))
(define-fun .144 () Bool (and .142 .143))
(define-fun .145 () Bool (< .38 .10))
(define-fun .146 () Bool (and .144 .145))
(define-fun .147 () Bool (< .94 .38))
(define-fun .148 () Bool (and .146 .147))
(define-fun .149 () Bool (< .40 .10))
(define-fun .150 () Bool (and .148 .149))
(define-fun .151 () Bool (< .94 .40))
(define-fun .152 () Bool (and .150 .151))
(define-fun .153 () Bool (< .42 .10))
(define-fun .154 () Bool (and .152 .153))
(define-fun .155 () Bool (< .94 .42))
(define-fun .156 () Bool (and .154 .155))
(define-fun .157 () Bool (< .44 .10))
(define-fun .158 () Bool (and .156 .157))
(define-fun .159 () Bool (< .94 .44))
(define-fun .160 () Bool (and .158 .159))
(define-fun .161 () Bool (< .46 .10))
(define-fun .162 () Bool (and .160 .161))
(define-fun .163 () Bool (< .94 .46))
(define-fun .164 () Bool (and .162 .163))
(define-fun .165 () Bool (< .48 .10))
(define-fun .166 () Bool (and .164 .165))
(define-fun .167 () Bool (< .94 .48))
(define-fun .168 () Bool (and .166 .167))
(define-fun .169 () Bool (< .50 .10))
(define-fun .170 () Bool (and .168 .169))
(define-fun .171 () Bool (< .94 .50))
(define-fun .172 () Bool (and .170 .171))
(define-fun .173 () Bool (< .52 .10))
(define-fun .174 () Bool (and .172 .173))
(define-fun .175 () Bool (< .94 .52))
(define-fun .176 () Bool (and .174 .175))
(define-fun .177 () Bool (< .54 .10))
(define-fun .178 () Bool (and .176 .177))
(define-fun .179 () Bool (< .94 .54))
(define-fun .180 () Bool (and .178 .179))
(define-fun .181 () Bool (< .56 .10))
(define-fun .182 () Bool (and .180 .181))
(define-fun .183 () Bool (< .94 .56))
(define-fun .184 () Bool (and .182 .183))
(define-fun .185 () Bool (< .58 .10))
(define-fun .186 () Bool (and .184 .185))
(define-fun .187 () Bool (< .94 .58))
(define-fun .188 () Bool (and .186 .187))
(define-fun .189 () Bool (< .60 .10))
(define-fun .190 () Bool (and .188 .189))
(define-fun .191 () Bool (< .94 .60))
(define-fun .192 () Bool (and .190 .191))
(define-fun .193 () Bool (< .62 .10))
(define-fun .194 () Bool (and .192 .193))
(define-fun .195 () Bool (< .94 .62))
(define-fun .196 () Bool (and .194 .195))
(define-fun .197 () Bool (< .64 .10))
(define-fun .198 () Bool (and .196 .197))
(define-fun .199 () Bool (< .94 .64))
(define-fun .200 () Bool (and .198 .199))
(define-fun .201 () Bool (< .66 .10))
(define-fun .202 () Bool (and .200 .201))
(define-fun .203 () Bool (< .94 .66))
(define-fun .204 () Bool (and .202 .203))
(define-fun .205 () Bool (< .68 .10))
(define-fun .206 () Bool (and .204 .205))
(define-fun .207 () Bool (< .94 .68))
(define-fun .208 () Bool (and .206 .207))
(define-fun .209 () Bool (< .70 .10))
(define-fun .210 () Bool (and .208 .209))
(define-fun .211 () Bool (< .94 .70))
(define-fun .212 () Bool (and .210 .211))
(define-fun .213 () Bool (< .72 .10))
(define-fun .214 () Bool (and .212 .213))
(define-fun .215 () Bool (< .94 .72))
(define-fun .216 () Bool (and .214 .215))
(define-fun .217 () Bool (< .74 .10))
(define-fun .218 () Bool (and .216 .217))
(define-fun .219 () Bool (< .94 .74))
(define-fun .220 () Bool (and .218 .219))
(define-fun .221 () Bool (< .76 .10))
(define-fun .222 () Bool (and .220 .221))
(define-fun .223 () Bool (< .94 .76))
(define-fun .224 () Bool (and .222 .223))
(define-fun .225 () Bool (< .78 .10))
(define-fun .226 () Bool (and .224 .225))
(define-fun .227 () Bool (< .94 .78))
(define-fun .228 () Bool (and .226 .227))
(define-fun .229 () Bool (< .80 .10))
(define-fun .230 () Bool (and .228 .229))
(define-fun .231 () Bool (< .94 .80))
(define-fun .232 () Bool (and .230 .231))
(define-fun .233 () Bool (< .82 .10))
(define-fun .234 () Bool (and .232 .233))
(define-fun .235 () Bool (< .94 .82))
(define-fun .236 () Bool (and .234 .235))
(define-fun .237 () Bool (< .84 .10))
(define-fun .238 () Bool (and .236 .237))
(define-fun .239 () Bool (< .94 .84))
(define-fun .240 () Bool (and .238 .239))
(define-fun .241 () Bool (< .86 .10))
(define-fun .242 () Bool (and .240 .241))
(define-fun .243 () Bool (< .94 .86))
(define-fun .244 () Bool (and .242 .243))
(define-fun .245 () Bool (< .88 .10))
(define-fun .246 () Bool (and .244 .245))
(define-fun .247 () Bool (< .94 .88))
(define-fun .248 () Bool (and .246 .247))
(define-fun .249 () Bool (< .90 .10))
(define-fun .250 () Bool (and .248 .249))
(define-fun .251 () Bool (< .94 .90))
(define-fun .252 () Bool (and .250 .251))
(assert .252)
(check-sat)
